
List of user-set options:

                                    Name   Value                used
                           compl_inf_tol = 1                     yes
                         constr_viol_tol = 1                     yes
                            dual_inf_tol = 1000                  yes
                           linear_solver = ma97                  yes
                              ma86_small = 1e-30                  no
                                  ma86_u = 0.0001                 no
                              ma97_order = best                  yes
                              ma97_small = 1e-30                 yes
                            ma97_switch1 = at_start              yes
                            ma97_switch2 = od_hd_reuse           yes
                                  ma97_u = 1e-06                 yes
                               ma97_umax = 0.5                   yes
                                max_iter = 1000                  yes
                    max_refinement_steps = 20                    yes
                    min_refinement_steps = 5                     yes
                                 mu_init = 1e-06                 yes
           mu_superlinear_decrease_power = 1.25                  yes
                   nlp_scaling_min_value = 1e-08                 yes
                        option_file_name = Preset_Case:_16_pf.opt  yes
                             output_file = ./tmp/Preset_Case:_16_pf.output  yes
                      print_user_options = yes                   yes
        required_infeasibility_reduction = 1                      no
                                     tol = 1e-08                 yes
                   warm_start_bound_frac = 1e-20                 yes
                   warm_start_bound_push = 1e-20                 yes
                   warm_start_init_point = yes                   yes
              warm_start_mult_bound_push = 1e-20                 yes
                warm_start_mult_init_max = 1e+40                 yes
             warm_start_slack_bound_frac = 1e-20                 yes
             warm_start_slack_bound_push = 1e-20                 yes

******************************************************************************
This program contains Ipopt, a library for large-scale nonlinear optimization.
 Ipopt is released as open source code under the Eclipse Public License (EPL).
         For more information visit http://projects.coin-or.org/Ipopt
******************************************************************************

This is Ipopt version 3.12.10, running with linear solver ma97.

Number of nonzeros in equality constraint Jacobian...:   123442
Number of nonzeros in inequality constraint Jacobian.:      213
Number of nonzeros in Lagrangian Hessian.............:    49069

Total number of variables............................:    31591
                     variables with only lower bounds:    12912
                variables with lower and upper bounds:    15130
                     variables with only upper bounds:        0
Total number of equality constraints.................:    31483
Total number of inequality constraints...............:       25
        inequality constraints with only lower bounds:        4
   inequality constraints with lower and upper bounds:        0
        inequality constraints with only upper bounds:       21

iter    objective    inf_pr   inf_du lg(mu)  ||d||  lg(rg) alpha_du alpha_pr  ls
   0 -1.9090240e+00 4.05e-03 1.02e+00  -6.0 0.00e+00    -  0.00e+00 0.00e+00   0
   1 -1.9085266e+00 5.35e-01 9.24e+00  -6.0 4.71e+05    -  6.65e-05 2.38e-04h  3
   2 -1.9102472e+00 5.34e-01 3.77e+01  -6.0 8.66e+02    -  1.66e-01 2.04e-03h  1
   3 -1.9108302e+00 5.33e-01 2.06e+02  -6.0 7.48e+02    -  9.62e-02 1.78e-03h  1
   4 -1.9508789e+00 1.15e+00 1.37e+03  -6.0 1.39e+03    -  7.39e-03 4.29e-01h  1
   5 -1.9508397e+00 1.13e+00 1.31e+04  -6.0 1.65e+00  -4.0 9.44e-01 1.50e-02h  1
   6 -1.9484520e+00 7.26e-01 1.13e+04  -6.0 5.18e+00  -4.5 9.64e-01 3.57e-01h  1
   7 -1.9895157e+00 1.49e+00 1.08e+04  -6.0 1.04e+03    -  1.51e-03 1.00e+00h  1
   8 -1.9833962e+00 1.15e+00 1.22e+04  -6.0 3.77e+01  -5.0 1.93e-01 2.32e-01h  1
   9 -1.9643219e+00 1.24e-01 6.97e+03  -6.0 5.01e+02    -  3.91e-04 1.00e+00h  1
iter    objective    inf_pr   inf_du lg(mu)  ||d||  lg(rg) alpha_du alpha_pr  ls
  10 -1.9616662e+00 3.15e-03 5.64e+01  -6.0 8.56e+00  -5.4 1.00e+00 1.00e+00h  1
  11 -1.9654660e+00 6.93e-02 6.13e+00  -6.0 1.25e+02    -  1.00e+00 1.00e+00H  1
  12 -1.9657246e+00 8.52e-02 1.68e+00  -6.0 3.40e+01    -  1.00e+00 1.00e+00h  1
  13 -1.9650794e+00 1.59e-02 5.05e+00  -6.0 6.95e+00    -  1.00e+00 1.00e+00h  1
  14 -1.9650489e+00 1.43e-02 1.47e+02  -6.0 1.14e+01    -  1.00e+00 2.50e-01h  1
  15 -1.9647575e+00 8.27e-04 5.54e-01  -6.0 2.31e+00    -  1.00e+00 1.00e+00h  1
  16 -1.9647743e+00 2.29e-04 2.23e-02  -6.0 9.03e-01    -  1.00e+00 1.00e+00h  1
  17 -1.9647748e+00 1.15e-06 5.94e-05  -6.0 6.58e-02    -  1.00e+00 1.00e+00h  1
  18 -1.9647748e+00 2.82e-10 5.81e-10  -6.0 2.51e-04    -  1.00e+00 1.00e+00h  1
  19 -1.9649407e+00 2.42e-01 1.04e+01  -7.5 1.40e+02    -  8.37e-01 8.32e-01f  1
iter    objective    inf_pr   inf_du lg(mu)  ||d||  lg(rg) alpha_du alpha_pr  ls
  20 -1.9649177e+00 4.26e-02 8.36e+00  -7.5 2.96e+01    -  1.00e+00 8.74e-01h  1
  21 -1.9649105e+00 2.74e-04 1.53e-02  -7.5 3.87e+00    -  1.00e+00 1.00e+00h  1
  22 -1.9649104e+00 4.37e-10 1.96e-08  -7.5 7.95e-03    -  1.00e+00 1.00e+00h  1
  23 -1.9649120e+00 3.00e-04 1.02e+00  -9.0 4.85e+00    -  9.56e-01 8.44e-01h  1
  24 -1.9649121e+00 1.04e-05 4.81e-04  -9.0 7.60e-01    -  1.00e+00 1.00e+00h  1
  25 -1.9649121e+00 2.84e-10 1.47e-09  -9.0 1.59e-04    -  1.00e+00 1.00e+00h  1

Number of Iterations....: 25

                                   (scaled)                 (unscaled)
Objective...............:  -1.5350876162150826e+00   -1.9649121487553058e+00
Dual infeasibility......:   1.4654129017523403e-09    1.8757285142429955e-09
Constraint violation....:   2.8432816626296209e-10    2.8432816626296209e-10
Complementarity.........:   1.0335328692651514e-09    1.3229220726593937e-09
Overall NLP error.......:   1.4654129017523403e-09    1.8757285142429955e-09


Number of objective function evaluations             = 30
Number of objective gradient evaluations             = 26
Number of equality constraint evaluations            = 30
Number of inequality constraint evaluations          = 30
Number of equality constraint Jacobian evaluations   = 26
Number of inequality constraint Jacobian evaluations = 26
Number of Lagrangian Hessian evaluations             = 25
Total CPU secs in IPOPT (w/o function evaluations)   =     46.635
Total CPU secs in NLP function evaluations           =      0.818

EXIT: Optimal Solution Found.
